
  32    4
  10   10   10   10

   0   0   0   0   0   2 2 8 
   3   1   1   1   0   1 3 
   1   8   6   0   1   2 7 4 
   1   0   2   2   5   1 5 
   1   3   0   4   3   1 6 
   7   1   5   0   4   1 9 
   8   0   4   5   4   1 9 
   6   3   5   0   4   1 9 
   1   2   0   9   5   1 10 
   6   3   2   1   0   2 21 11 
   8   5   2   4   0   1 12 
   1   5   2   5   0   1 13 
   6   1   5   0   5   2 17 14 
   8   4   0   6   2   1 15 
   1   7   4   0   3   1 16 
   1   0   5   5   1   1 18 
   7   3   5   3   0   1 18 
   8   0   4   2   3   1 19 
   5   5   0   4   5   1 20 
   4   0   5   3   5   1 22 
   9   6   5   0   5   1 22 
   1   0   5   2   6   2 25 23 
   5   5   4   0   4   1 24 
   4   4   0   4   4   2 30 26 
   5   0   6   6   5   2 30 28 
   4   4   3   0   7   1 27 
   3   6   0   6   3   1 28 
   1   3   5   0   5   1 29 
  10   4   0   3   5   1 31 
   8   1   3   0   4   1 31 
   6   8   0   5   2   1 32
   0   0   0   0   0   0 
